NAME : ft70Preorder.9749.tour
COMMENT : Length = 9749
COMMENT : Found by LKH [Keld Helsgaun] Sun Apr 19 19:25:39 2020
TYPE : TOUR
DIMENSION : 70
TOUR_SECTION
1
2
61
60
58
45
50
36
39
40
41
37
43
42
38
70
66
69
68
64
67
65
49
44
35
33
30
24
27
56
52
51
19
20
48
34
32
31
47
46
63
62
59
28
23
22
25
57
54
21
18
17
16
5
3
29
55
53
26
14
13
15
11
10
12
9
8
4
6
7
-1
EOF
